3081 4307
3081 4307
3190 4307
3190 4298
3335 4298
3335 4291
3405 4291
3405 4274
3546 4274
3546 4241
3675 4241
3675 4206
3776 4206
3776 4163
3860 4163
3860 4127
3918 4127
3918 4055
3999 4055
3999 4045
4009 4045
4009 3928
4116 3928
4116 3781
4208 3781
4208 3749
4227 3749
4227 3696
4249 3696
4249 3625
4274 3625
4274 3487
4320 3487
4320 3321
4352 3321
4352 3277
4358 3277
4358 3193
4368 3193
4358 3277
4352 3321
4320 3487
4274 3625
4249 3696
4227 3749
4208 3781
4116 3928
4009 4045
3999 4055
3918 4127
3860 4163
3776 4206
3675 4241
3546 4274
3405 4291
3335 4298
3190 4307
3081 4307
